0 4985.83
1 4949.39
2 4917.85
3 4917.85
4 4892.08
5 4892.08
6 4892.08
7 4846.92
8 4846.92
9 4846.92
10 4846.92
11 4845.88
12 4845.88
13 4845.88
14 4845.88
15 4810.22
16 4810.22
17 4810.22
18 4810.22
19 4810.22
20 4810.22
21 4810.22
22 4810.22
23 4810.22
24 4810.22
25 4783.28
26 4783.28
27 4783.28
28 4762.96
29 4762.96
30 4762.96
31 4762.96
32 4762.96
33 4762.96
34 4762.96
35 4762.96
36 4762.96
37 4757.71
38 4757.71
39 4757.71
40 4757.71
41 4757.71
42 4757.71
43 4757.71
44 4757.71
45 4757.71
46 4757.71
47 4757.71
48 4757.71
49 4757.71
50 4757.71
51 4757.71
52 4757.71
53 4757.71
54 4757.71
55 4757.71
56 4757.71
57 4734.99
58 4734.99
59 4734.99
60 4734.99
61 4734.99
62 4734.99
63 4734.99
64 4734.99
65 4734.99
66 4734.99
67 4734.99
68 4734.99
69 4734.99
70 4734.99
71 4734.99
72 4734.99
73 4734.99
74 4734.99
75 4734.99
76 4734.99
77 4734.99
78 4734.99
79 4734.99
80 4729.49
81 4729.49
82 4729.49
83 4729.49
84 4729.49
85 4729.49
86 4729.49
87 4729.49
88 4729.49
89 4729.49
90 4729.49
91 4729.49
92 4729.49
93 4729.49
94 4729.49
95 4729.49
96 4729.49
97 4729.49
98 4729.49
99 4729.49
100 4729.49
101 4729.49
102 4729.49
103 4729.49
104 4729.49
105 4729.49
106 4729.49
107 4729.49
108 4729.49
109 4729.49
110 4729.49
111 4729.49
112 4729.49
113 4729.49
114 4729.49
115 4729.49
116 4729.49
117 4729.49
118 4729.49
119 4729.49
120 4729.49
121 4729.49
122 4729.49
123 4729.49
124 4729.49
125 4729.49
126 4729.49
127 4729.49
128 4729.49
129 4729.49
130 4729.49
131 4729.49
132 4729.49
133 4729.49
134 4729.49
135 4729.49
136 4729.49
137 4729.49
138 4729.49
139 4729.49
140 4729.49
141 4729.49
142 4729.49
143 4729.49
144 4729.49
145 4729.49
146 4729.49
147 4729.49
148 4729.49
149 4729.49
150 4729.49
151 4729.49
152 4729.49
153 4729.49
154 4729.49
155 4729.49
156 4729.49
157 4729.49
158 4729.49
159 4729.49
160 4729.49
161 4729.49
162 4729.49
163 4729.49
164 4729.49
165 4729.49
166 4729.49
167 4729.49
168 4729.49
169 4729.49
170 4729.49
171 4727.32
172 4726.29
173 4726.29
174 4726.29
175 4726.29
176 4726.29
177 4726.29
178 4726.29
179 4726.29
180 4726.29
181 4726.29
182 4722.16
183 4722.16
184 4722.16
185 4722.16
186 4722.16
187 4722.16
188 4722.16
189 4722.16
190 4722.16
191 4722.16
192 4722.16
193 4722.16
194 4722.16
195 4722.16
196 4722.16
197 4722.16
198 4722.16
199 4722.16
200 4722.16
201 4722.16
202 4722.16
203 4722.16
204 4722.16
205 4722.16
206 4722.16
207 4722.16
208 4720.58
209 4720.58
210 4720.58
211 4720.58
212 4720.58
213 4720.58
214 4720.58
215 4720.58
216 4720.58
217 4720.58
218 4720.58
219 4720.58
220 4720.58
221 4720.58
222 4720.58
223 4720.58
224 4720.58
225 4720.58
226 4720.58
227 4720.58
228 4720.58
229 4720.58
230 4720.58
231 4720.58
232 4720.58
233 4720.58
234 4720.58
235 4720.58
236 4720.58
237 4720.58
238 4720.58
239 4720.58
240 4717.38
241 4717.38
242 4717.38
243 4717.38
244 4717.38
245 4717.38
246 4717.38
247 4707.33
248 4707.33
249 4707.33
250 4707.33
251 4707.33
252 4707.33
253 4707.33
254 4707.33
255 4707.33
256 4707.33
257 4702.49
258 4702.49
259 4702.49
260 4702.49
261 4702.49
262 4702.49
263 4702.49
264 4702.49
265 4702.49
266 4702.49
267 4702.49
268 4702.49
269 4702.49
270 4702.49
271 4702.49
272 4702.49
273 4702.49
274 4702.49
275 4702.49
276 4702.49
277 4702.49
278 4702.49
279 4702.49
280 4702.49
281 4702.49
282 4702.49
283 4702.49
284 4702.49
285 4702.49
286 4702.49
287 4699.72
288 4699.72
289 4699.72
290 4699.72
291 4699.72
292 4699.72
293 4699.72
294 4699.72
295 4699.72
296 4699.72
297 4699.72
298 4699.72
299 4699.72
300 4699.72
301 4699.72
302 4699.72
303 4699.72
304 4699.72
305 4699.72
306 4699.72
307 4699.72
308 4699.72
309 4699.72
310 4699.72
311 4699.72
312 4699.72
313 4699.72
314 4699.72
315 4699.72
316 4699.72
317 4699.72
318 4699.72
319 4699.72
320 4699.72
321 4699.72
322 4699.72
323 4699.72
324 4699.72
325 4699.72
326 4699.72
327 4699.72
328 4699.72
329 4699.72
330 4699.72
331 4699.72
332 4699.72
333 4699.72
334 4699.72
335 4699.72
336 4699.72
337 4699.72
338 4699.72
339 4699.72
340 4699.72
341 4699.72
342 4699.72
343 4699.72
344 4699.72
345 4699.72
346 4699.72
347 4699.72
348 4699.72
349 4699.72
350 4699.72
351 4699.72
352 4699.72
353 4699.72
354 4699.72
355 4699.72
356 4699.72
357 4699.72
358 4699.72
359 4699.72
360 4699.72
361 4694.89
362 4694.89
363 4694.89
364 4694.89
365 4694.89
366 4694.89
367 4694.89
368 4694.89
369 4694.89
370 4694.89
371 4694.89
372 4694.89
373 4694.89
374 4694.89
375 4694.89
376 4694.89
377 4694.35
378 4694.35
379 4694.35
380 4694.35
381 4694.35
382 4694.35
383 4694.35
384 4692.04
385 4692.04
386 4692.04
387 4692.04
388 4692.04
389 4692.04
390 4692.04
391 4692.04
392 4692.04
393 4692.04
394 4692.04
395 4692.04
396 4692.04
397 4692.04
398 4692.04
399 4692.04
400 4692.04
401 4692.04
402 4692.04
403 4692.04
404 4692.04
405 4692.04
406 4692.04
407 4692.04
408 4692.04
409 4692.04
410 4692.04
411 4692.04
412 4692.04
413 4692.04
414 4692.04
415 4692.04
416 4692.04
417 4692.04
418 4692.04
419 4692.04
420 4692.04
421 4692.04
422 4692.04
423 4692.04
424 4692.04
425 4692.04
426 4692.04
427 4692.04
428 4692.04
429 4692.04
430 4692.04
431 4692.04
432 4692.04
433 4692.04
434 4692.04
435 4692.04
436 4692.04
437 4692.04
438 4692.04
439 4692.04
440 4692.04
441 4692.04
442 4692.04
443 4692.04
444 4692.04
445 4692.04
446 4692.04
447 4692.04
448 4692.04
449 4692.04
450 4692.04
451 4692.04
452 4692.04
453 4692.04
454 4692.04
455 4659.18
456 4659.18
457 4659.18
458 4659.18
459 4659.18
460 4659.18
461 4659.18
462 4659.18
463 4659.18
464 4659.18
465 4659.18
466 4659.18
467 4659.18
468 4659.18
469 4659.18
470 4659.18
471 4659.18
472 4659.18
473 4659.18
474 4659.18
475 4659.18
476 4659.18
477 4659.18
478 4659.18
479 4657.11
480 4657.11
481 4657.11
482 4657.11
483 4657.11
484 4657.11
485 4657.11
486 4657.11
487 4657.11
488 4657.11
489 4657.11
490 4657.11
491 4657.11
492 4657.11
493 4657.11
494 4657.11
495 4657.11
496 4657.11
497 4657.11
498 4657.11
499 4657.11
2 5 9 4 0 0 